% demand
num_movements = 23;
loading_factor = [1200, 1850, 1650, 1900, 1750, 1100, 1350, 950, 1050, 800, 1000, 1800, 1800, 1200, 1500, 1850, 1700, 1500, 800, 2000, 950, 1950, 950];
pickup_time = [0, 0, 0, 0, 1, 1, 1, 1, 3, 4, 5, 5, 7, 7, 7, 10, 10, 10, 11, 11, 12, 12, 12];
delivery_time = [1, 4, 1, 1, 3, 4, 11, 6, 4, 8, 7, 6, 9, 9, 9, 11, 11, 11, 13, 13, 13, 13, 13];

% transporter definition
total_capacity = 7000;
num_decks = 3;
capacity = [3000, 1000, 3000];

% ways out of decks
num_ways_out = 1;
paths_out = array3d(decks, ways_out, decks, [
% ways out of deck d1
2, 3, 0, 

% ways out of deck d2
3, 0, 0, 

% ways out of deck d3
0, 0, 0,	

]);

